DATASET = "thpack4";
INSTANCE = "032";

WIDTH = 233;
HEIGHT = 220;
LENGTH = 587;

NO_OF_SHAPES = 10;
size = [|
  95,76,44 |
  81,47,34 |
  71,52,30 |
  96,52,28 |
  104,80,50 |
  77,64,57 |
  75,45,36 |
  65,49,39 |
  70,49,41 |
  111,44,42 |
|];

verticality = [|
  0,1,1 |
  0,1,1 |
  0,1,1 |
  0,1,1 |
  0,1,1 |
  1,1,1 |
  0,1,1 |
  1,1,1 |
  1,1,1 |
  0,1,1 |
|];

box_count = [
  14,
  20,
  18,
  11,
  13,
  19,
  23,
  15,
  12,
  11,
];
